NAME : local_2
TYPE : ATSP
DIMENSION : 24
EDGE_WEIGHT_TYPE : EXPLICIT
EDGE_WEIGHT_FORMAT : FULL_MATRIX
EDGE_WEIGHT_SECTION
0 506 10000000 10000000 10000000 10000000 667 215 285 448 814 10000000 945 10000000 10000000 10000000 10000000 10000000 10000000 10000000 10000000 676 10000000 10000000 
0 0 10000000 10000000 10000000 10000000 848 396 483 910 10000000 10000000 549 10000000 10000000 10000000 10000000 10000000 10000000 10000000 1051 517 10000000 10000000 
0 10000000 0 442 461 643 10000000 10000000 10000000 10000000 10000000 10000000 10000000 948 697 10000000 10000000 10000000 989 10000000 522 10000000 10000000 10000000 
0 10000000 442 0 287 204 10000000 10000000 10000000 10000000 10000000 10000000 1037 591 451 960 816 800 621 10000000 595 1059 10000000 721 
0 10000000 461 287 0 364 10000000 10000000 10000000 10000000 10000000 10000000 10000000 849 238 705 784 970 545 10000000 816 10000000 10000000 829 
0 10000000 643 204 364 0 10000000 10000000 10000000 10000000 10000000 10000000 10000000 518 415 954 628 622 462 1057 751 10000000 10000000 519 
0 848 10000000 10000000 10000000 10000000 0 534 419 923 592 494 935 10000000 10000000 10000000 10000000 10000000 10000000 579 10000000 483 812 10000000 
0 396 10000000 10000000 10000000 10000000 534 0 114 644 838 10000000 771 10000000 10000000 10000000 10000000 10000000 10000000 943 10000000 464 10000000 10000000 
0 483 10000000 10000000 10000000 10000000 419 114 0 672 755 913 785 10000000 10000000 10000000 10000000 10000000 10000000 854 10000000 421 10000000 10000000 
0 910 10000000 10000000 10000000 10000000 923 644 672 0 741 10000000 10000000 10000000 10000000 926 10000000 10000000 10000000 10000000 10000000 10000000 931 10000000 
0 10000000 10000000 10000000 10000000 10000000 592 838 755 741 0 756 10000000 10000000 931 611 10000000 10000000 10000000 10000000 10000000 10000000 265 10000000 
0 10000000 10000000 10000000 10000000 10000000 494 10000000 913 10000000 756 0 10000000 10000000 10000000 10000000 10000000 10000000 10000000 562 10000000 862 852 10000000 
0 549 10000000 996 10000000 10000000 935 771 785 10000000 10000000 10000000 0 762 10000000 10000000 10000000 10000000 10000000 825 659 470 10000000 10000000 
0 10000000 948 591 849 518 10000000 10000000 10000000 10000000 10000000 10000000 762 0 910 10000000 913 450 859 729 719 868 10000000 580 
0 10000000 697 451 238 415 10000000 10000000 10000000 10000000 957 10000000 10000000 910 0 563 602 922 354 10000000 10000000 10000000 886 741 
0 10000000 10000000 960 705 954 10000000 10000000 10000000 926 611 10000000 10000000 10000000 563 0 947 10000000 754 10000000 10000000 10000000 506 10000000 
0 10000000 10000000 816 784 628 10000000 10000000 10000000 10000000 10000000 10000000 10000000 913 602 947 0 629 247 10000000 10000000 10000000 10000000 390 
0 10000000 10000000 800 970 622 10000000 10000000 10000000 10000000 10000000 10000000 10000000 450 922 10000000 629 0 700 767 10000000 10000000 10000000 246 
0 10000000 989 621 545 462 10000000 10000000 10000000 10000000 10000000 10000000 10000000 859 354 754 247 700 0 10000000 10000000 10000000 990 475 
0 10000000 10000000 10000000 10000000 1216 579 943 854 10000000 10000000 562 825 729 10000000 10000000 10000000 767 10000000 0 10000000 551 10000000 994 
0 1002 522 595 816 751 10000000 10000000 10000000 10000000 10000000 10000000 659 719 10000000 10000000 10000000 10000000 10000000 10000000 0 972 10000000 10000000 
0 517 10000000 1075 10000000 10000000 483 464 421 10000000 10000000 862 470 868 10000000 10000000 10000000 10000000 10000000 551 972 0 10000000 10000000 
0 10000000 10000000 10000000 10000000 10000000 812 10000000 10000000 931 265 852 10000000 10000000 886 506 10000000 10000000 984 10000000 10000000 10000000 0 10000000 
0 10000000 10000000 10000000 10000000 10000000 10000000 10000000 10000000 10000000 10000000 10000000 10000000 10000000 10000000 10000000 10000000 10000000 10000000 10000000 10000000 10000000 10000000 0 
EOF